\* Problem: Unknown *\

Maximize
 obj: + xp_0_0 + xp_0_1 + xp_0_2 + xp_0_3 + xp_0_4 + xp_0_5 + xp_0_6
 + xp_0_7 + xp_1_0 + xp_1_1 + xp_2_0 + xp_2_1 + xp_2_2 + xp_2_3 + xp_2_4
 + xp_3_0 + xp_3_1 + xp_3_2 + xp_4_0 + xp_4_1 + xp_5_0 + xp_5_1 + xp_6_0
 + xp_6_1 + xp_6_2 + xp_7_0 + xp_7_1 + xp_8_0 + xp_9_0 + xp_10_0
 + xp_11_0 + xp_11_1 + xp_11_2 + xp_11_3 + xp_11_4 + xp_12_0 + xp_13_0
 + xp_13_1 + xp_14_0 + xp_14_1 + xp_15_0 + xp_16_0 + xp_17_0 + xp_17_1
 + xp_17_2 + xp_17_3 + xp_17_4 + xp_18_0 + xp_18_1 + xp_18_2 + xp_18_3
 + xp_19_0 + xp_19_1 + xp_19_2 + xp_19_3 + xp_19_4 + xp_20_0 + xp_20_1
 + xp_20_2 + xp_20_3 + xp_21_0 + xp_21_1 + xp_21_2 + xp_21_3 + xp_21_4
 + xp_21_5 + xp_22_0 + xp_22_1 + xp_22_2 + xp_22_3 + xp_22_4 + xp_22_5
 + xp_23_0 + xp_23_1 + xp_23_2 + xp_23_3 + xp_23_4

Subject To
 r_1: 0 xp_0_0 <= 25.8070099524016
 r_2: + xp_23_3 + xp_22_4 + xp_18_3 + xp_18_2 + xp_2_3
 <= 25.8070099524016
 r_3: + xp_23_2 + xp_21_4 + xp_6_1 <= 26.5090230242688
 r_4: + xp_17_3 + xp_15_0 + xp_0_5 <= 27.1553784860558
 r_5: + xp_18_0 <= 25.5089820359281
 r_6: + xp_18_1 <= 26.5090230242688
 r_7: + xp_20_2 <= 25.8070099524016
 r_8: + xp_22_3 + xp_11_3 + xp_5_1 + xp_3_2 + xp_2_1 <= 25.8070099524016
 r_9: + xp_11_1 + xp_3_1 <= 26.5090230242688
 r_10: + xp_17_2 + xp_11_4 + xp_3_0 <= 27.1553784860558
 r_11: + xp_18_1 + xp_11_2 <= 25.5089820359281
 r_12: + xp_11_0 <= 26.5090230242688
 r_13: 0 xp_0_0 <= 27.6367006487488
 r_14: + xp_21_2 + xp_14_0 + xp_0_3 + xp_0_1 <= 25.8070099524016
 r_15: + xp_21_0 + xp_19_3 + xp_4_1 <= 26.5090230242688
 r_16: + xp_22_2 + xp_21_1 + xp_19_4 + xp_0_6 + xp_0_4 + xp_0_2
 <= 26.9620253164557
 r_17: + xp_0_0 <= 25.5089820359281
 r_18: + xp_21_4 + xp_4_0 + xp_0_5 <= 25.8070099524016
 r_19: + xp_19_0 <= 25.8070099524016
 r_20: + xp_21_5 + xp_21_3 + xp_19_2 + xp_19_1 + xp_14_1 + xp_0_7
 <= 27.6367006487488
 r_21: + xp_20_1 <= 25.8070099524016
 r_22: + xp_21_5 + xp_21_2 + xp_7_1 <= 26.5090230242688
 r_23: + xp_22_5 + xp_22_4 + xp_22_3 <= 26.9620253164557
 r_24: + xp_23_4 + xp_23_3 + xp_18_3 + xp_3_2 + xp_0_7 + xp_0_3
 <= 26.5090230242688
 r_25: 0 xp_0_0 <= 27.6367006487488
 r_26: + xp_18_2 + xp_0_1 <= 25.5089820359281
 r_27: + xp_11_3 <= 25.8070099524016
 r_28: + xp_19_2 <= 25.8070099524016
 r_29: + xp_20_3 <= 26.5090230242688
 r_30: + xp_2_0 <= 26.5090230242688
 r_31: + xp_23_2 + xp_6_1 + xp_3_1 + xp_2_4 <= 26.5090230242688
 r_32: + xp_2_2 <= 27.6367006487488
 r_33: + xp_11_1 + xp_4_1 + xp_2_3 <= 26.5090230242688
 r_34: + xp_19_3 + xp_2_1 <= 26.5090230242688
 r_35: 0 xp_0_0 <= 26.9620253164557
 r_36: + xp_9_0 <= 26.9620253164557
 r_37: + xp_21_1 + xp_13_1 + xp_6_2 + xp_0_4 <= 26.5090230242688
 r_38: + xp_1_1 <= 28.7484662576687
 r_39: + xp_19_4 + xp_17_1 + xp_0_6 <= 27.1553784860558
 r_40: + xp_0_2 <= 25.5089820359281
 r_41: + xp_12_0 + xp_2_4 <= 26.5090230242688
 r_42: + xp_21_1 <= 26.5090230242688
 r_43: + xp_16_0 <= 26.5090230242688
 r_44: + xp_23_4 + xp_23_3 + xp_23_2 + xp_23_1 <= 28.7484662576687
 r_45: + xp_3_2 + xp_3_1 <= 27.1553784860558
 r_46: + xp_18_3 + xp_0_7 + xp_0_4 + xp_0_3 <= 25.5089820359281
 r_47: + xp_22_1 + xp_13_1 <= 28.7484662576687
 r_48: + xp_13_0 <= 28.7484662576687
 r_49: + xp_17_4 <= 27.1553784860558
 r_50: 0 xp_0_0 <= 25.5089820359281
 r_51: + xp_1_1 <= 27.1553784860558
 r_52: + xp_8_0 <= 27.1553784860558
 r_53: + xp_1_0 <= 27.1553784860558
 r_54: + xp_0_6 + xp_0_5 <= 25.5089820359281
 r_55: + xp_11_4 <= 27.1553784860558
 r_56: + xp_19_4 <= 27.1553784860558
 r_57: + xp_22_2 <= 25.5089820359281
 r_58: + xp_23_4 + xp_22_5 + xp_5_0 <= 25.5089820359281
 r_59: + xp_22_0 + xp_17_1 + xp_6_2 <= 25.5089820359281
 r_60: + xp_23_1 + xp_6_0 <= 25.5089820359281
 r_61: + xp_23_0 + xp_22_1 + xp_17_4 <= 25.5089820359281
 r_62: + xp_17_0 <= 25.5089820359281
 r_63: + xp_23_3 + xp_23_2 + xp_22_4 + xp_17_3 + xp_11_2 + xp_6_1
 <= 25.5089820359281
 r_64: + xp_22_3 + xp_17_2 + xp_5_1 <= 25.5089820359281
 r_65: + xp_21_5 + xp_20_1 + xp_19_2 + xp_14_1 + xp_7_1 + xp_2_2
 + xp_0_7 <= 27.6367006487488
 r_66: + xp_21_3 + xp_20_3 + xp_7_0 <= 27.6367006487488
 r_67: + xp_20_2 + xp_19_1 + xp_10_0 <= 27.6367006487488
 r_68: + xp_20_0 <= 27.6367006487488

Bounds
 0 <= xp_0_0 <= 27.1540364397507
 0 <= xp_0_1 <= 8.27006327006327
 0 <= xp_0_2 <= 11.1495647209933
 0 <= xp_0_3 <= 1.13838542409971
 0 <= xp_0_4 <= 3.71652157366443
 0 <= xp_0_5 <= 1.13838542409971
 0 <= xp_0_6 <= 3.71652157366443
 0 <= xp_0_7 <= 3.71652157366443
 0 <= xp_1_0 <= 19.1964285714286
 0 <= xp_1_1 <= 14.3973214285714
 0 <= xp_2_0 <= 23.314750725465
 0 <= xp_2_1 <= 3.71652157366443
 0 <= xp_2_2 <= 1.01562128347843
 0 <= xp_2_3 <= 3.04686385043528
 0 <= xp_2_4 <= 2.03124256695685
 0 <= xp_3_0 <= 20.6250074330431
 0 <= xp_3_1 <= 9.47544271204985
 0 <= xp_3_2 <= 0.680799854906998
 0 <= xp_4_0 <= 21.4285714285714
 0 <= xp_4_1 <= 3.57142857142857
 0 <= xp_5_0 <= 21.4285714285714
 0 <= xp_5_1 <= 3.57142857142857
 0 <= xp_6_0 <= 16.0714285714286
 0 <= xp_6_1 <= 3.21428571428571
 0 <= xp_6_2 <= 3.21428571428571
 0 <= xp_7_0 <= 15.4017857142857
 0 <= xp_7_1 <= 6.16071428571429
 0 <= xp_8_0 <= 19.375
 0 <= xp_9_0 <= 17.96875
 0 <= xp_10_0 <= 17.96875
 0 <= xp_11_0 <= 26.015651015651
 0 <= xp_11_1 <= 12.5334784263356
 0 <= xp_11_2 <= 8.125
 0 <= xp_11_3 <= 9.50891370534228
 0 <= xp_11_4 <= 0.691956852671139
 0 <= xp_12_0 <= 16.875
 0 <= xp_13_0 <= 14.0625
 0 <= xp_13_1 <= 2.34375
 0 <= xp_14_0 <= 13.3928571428571
 0 <= xp_14_1 <= 2.23214285714286
 0 <= xp_15_0 <= 15.46875
 0 <= xp_16_0 <= 14.84375
 0 <= xp_17_0 <= 27.276800580372
 0 <= xp_17_1 <= 7.46650670757814
 0 <= xp_17_2 <= 2.48883556919271
 0 <= xp_17_3 <= 2.48883556919271
 0 <= xp_17_4 <= 3.71652157366443
 0 <= xp_18_0 <= 20.8035862946577
 0 <= xp_18_1 <= 11.1048921316778
 0 <= xp_18_2 <= 7.43304314732886
 0 <= xp_18_3 <= 2.22097842633557
 0 <= xp_19_0 <= 28.1696651562723
 0 <= xp_19_1 <= 2.15401414062128
 0 <= xp_19_2 <= 2.15401414062128
 0 <= xp_19_3 <= 6.46204242186385
 0 <= xp_19_4 <= 2.15401414062128
 0 <= xp_20_0 <= 26.3839434375149
 0 <= xp_20_1 <= 7.80133556919271
 0 <= xp_20_2 <= 4.08481399552828
 0 <= xp_20_3 <= 2.04240699776414
 0 <= xp_21_0 <= 16.5401785714286
 0 <= xp_21_1 <= 3.59374256695685
 0 <= xp_21_2 <= 1.79687128347843
 0 <= xp_21_3 <= 7.43304314732886
 0 <= xp_21_4 <= 7.43304314732886
 0 <= xp_21_5 <= 1.79687128347843
 0 <= xp_22_0 <= 15.8705357142857
 0 <= xp_22_1 <= 5.29017857142857
 0 <= xp_22_2 <= 1.57365699776414
 0 <= xp_22_3 <= 6.86383556919271
 0 <= xp_22_4 <= 3.71652157366443
 0 <= xp_22_5 <= 3.71652157366443
 0 <= xp_23_0 <= 19.5870572879501
 0 <= xp_23_1 <= 9.006700145093
 0 <= xp_23_2 <= 5.29017857142857
 0 <= xp_23_3 <= 1.57365699776414
 0 <= xp_23_4 <= 1.57365699776414

End
